Gurobi Optimizer version 9.1.2 build v9.1.2rc0 (linux64)
Thread count: 36 physical cores, 72 logical processors, using up to 32 threads
Optimize a model with 12 rows, 57 columns and 590 nonzeros
Model fingerprint: 0xf32eec78
Model has 47 quadratic constraints
Coefficient statistics:
  Matrix range     [2e-05, 3e+00]
  QMatrix range    [1e+00, 1e+00]
  QLMatrix range   [1e+00, 1e+00]
  Objective range  [8e-03, 7e-01]
  Bounds range     [1e+00, 1e+00]
  RHS range        [1e+00, 1e+00]
Presolve removed 9 rows and 0 columns

Continuous model is non-convex -- solving as a MIP.

Presolve removed 9 rows and 0 columns
Presolve time: 0.00s
Presolved: 189 rows, 57 columns, 443 nonzeros
Presolved model has 47 bilinear constraint(s)
Variable types: 57 continuous, 0 integer (0 binary)

Root relaxation: objective -1.743721e+00, 44 iterations, 0.00 seconds

    Nodes    |    Current Node    |     Objective Bounds      |     Work
 Expl Unexpl |  Obj  Depth IntInf | Incumbent    BestBd   Gap | It/Node Time

     0     0   -1.74372    0   38          -   -1.74372      -     -    0s
H    0     0                       0.6147548   -1.74372   384%     -    0s
     0     0   -1.64739    0    1    0.61475   -1.64739   368%     -    0s
H    0     0                      -1.6450460   -1.64739  0.14%     -    0s
     0     0     cutoff    0        -1.64505   -1.64505  0.00%     -    0s

Cutting planes:
  RLT: 25
  BQP: 3

Explored 1 nodes (76 simplex iterations) in 0.01 seconds
Thread count was 32 (of 72 available processors)

Solution count 2: -1.64505 0.614755 
No other solutions better than -1.64505

Optimal solution found (tolerance 1.00e-04)
Best objective -1.645045978473e+00, best bound -1.645045978473e+00, gap 0.0000%

User-callback calls 78, time in user-callback 0.00 sec
Gurobi Optimizer version 9.1.2 build v9.1.2rc0 (linux64)
Thread count: 36 physical cores, 72 logical processors, using up to 32 threads
Optimize a model with 60 rows, 300 columns and 15500 nonzeros
Model fingerprint: 0x9c30afba
Model has 250 quadratic constraints
Coefficient statistics:
  Matrix range     [1e-06, 4e+00]
  QMatrix range    [1e+00, 1e+00]
  QLMatrix range   [1e+00, 1e+00]
  Objective range  [3e-04, 1e+00]
  Bounds range     [1e+00, 1e+00]
  RHS range        [1e+00, 1e+00]
Presolve removed 11 rows and 0 columns

Continuous model is non-convex -- solving as a MIP.

Presolve removed 11 rows and 0 columns
Presolve time: 0.01s
Presolved: 1049 rows, 300 columns, 14161 nonzeros
Presolved model has 250 bilinear constraint(s)
Variable types: 300 continuous, 0 integer (0 binary)

Root relaxation: objective -2.183634e+01, 338 iterations, 0.02 seconds

    Nodes    |    Current Node    |     Objective Bounds      |     Work
 Expl Unexpl |  Obj  Depth IntInf | Incumbent    BestBd   Gap | It/Node Time

     0     0  -21.83634    0  208          -  -21.83634      -     -    0s
H    0     0                      -3.6603380  -21.83634   497%     -    0s
     0     0  -19.29129    0  181   -3.66034  -19.29129   427%     -    0s
H    0     0                      -8.2188783  -19.29129   135%     -    0s
     0     0  -19.01640    0  211   -8.21888  -19.01640   131%     -    0s
H    0     0                      -9.6673361  -19.01640  96.7%     -    0s
     0     0  -18.99073    0  195   -9.66734  -18.99073  96.4%     -    0s
     0     0  -18.95982    0  158   -9.66734  -18.95982  96.1%     -    0s
H    0     0                      -9.9739429  -18.95982  90.1%     -    0s
     0     0  -18.95903    0  158   -9.97394  -18.95903  90.1%     -    0s
     0     0  -18.95712    0  119   -9.97394  -18.95712  90.1%     -    0s
     0     0  -18.95712    0  119   -9.97394  -18.95712  90.1%     -    0s
H    0     0                     -13.9244643  -18.95712  36.1%     -    0s
H    0     0                     -14.6726015  -18.95712  29.2%     -    0s
H    0     0                     -14.7732033  -18.95712  28.3%     -    0s
     0     2  -18.95712    0  119  -14.77320  -18.95712  28.3%     -    0s
* 1603  1534              87     -15.1288163  -18.13067  19.8%  59.3    1s
* 1871  1728             104     -15.1288936  -18.13067  19.8%  55.3    1s
* 1923  1840             100     -15.2040653  -18.13067  19.2%  54.5    1s
* 2083  1886             125     -15.4487292  -18.13067  17.4%  53.1    2s
* 2084  1886             125     -15.4487296  -18.13067  17.4%  53.1    2s
* 2172  1877              54     -16.5635461  -18.13067  9.46%  52.3    2s
* 2669  1829              65     -16.6051154  -18.04265  8.66%  53.2    2s
* 5158   951              82     -16.6534847  -18.04265  8.34%  61.3    4s
* 5160   904              83     -16.6535756  -18.04265  8.34%  61.3    4s
  6249   978  -16.84731   26  144  -16.65358  -18.04265  8.34%  61.9    5s
* 7023  1409              64     -16.7951021  -18.04265  7.43%  60.6    5s
* 7025  1409              65     -16.7951041  -18.04265  7.43%  60.6    5s
* 7179  1550              70     -16.8013834  -18.04265  7.39%  60.0    5s
* 7180  1550              70     -16.8013868  -18.04265  7.39%  60.0    5s
* 7387  1722             103     -17.0726937  -18.04265  5.68%  59.4    5s
* 8015  1819              82     -17.1142614  -18.04265  5.42%  57.7    5s
* 8021  1819              84     -17.1142621  -18.04265  5.42%  57.7    5s
* 8047  1819              92     -17.1381885  -18.04265  5.28%  57.5    5s
* 8245  1766              74     -17.1399139  -17.86078  4.21%  57.5    5s
* 8573  1803              77     -17.1457134  -17.86078  4.17%  57.2    5s
* 8989  1870              78     -17.1458518  -17.72385  3.37%  56.4    5s
* 8990  1870              78     -17.1458527  -17.72385  3.37%  56.4    5s
* 9172  1881              68     -17.1849120  -17.64169  2.66%  55.9    5s
* 9175  1881              70     -17.1868307  -17.64169  2.65%  55.9    5s
* 9176  1881              70     -17.1868313  -17.64169  2.65%  55.9    5s
* 9178  1881              70     -17.1869152  -17.64169  2.65%  55.9    5s
* 9206  1881              70     -17.1933073  -17.64169  2.61%  55.7    5s
* 9445  1881             110     -17.2412891  -17.64169  2.32%  55.0    5s
* 9447  1881             109     -17.2413085  -17.64169  2.32%  55.0    5s
*10165  1894              58     -17.2413444  -17.47888  1.38%  54.2    6s
*10223  1894              79     -17.2414610  -17.45072  1.21%  54.0    6s
*10225  1894              80     -17.2414680  -17.45072  1.21%  54.0    6s
*10227  1894              78     -17.2415062  -17.45072  1.21%  54.0    6s
*10331  1894              69     -17.2479740  -17.45072  1.18%  53.9    6s
*10504  1894              78     -17.2711887  -17.45072  1.04%  53.6    6s
*11394  1947              57     -17.2711943  -17.38618  0.67%  51.7    6s
*11464  1947              77     -17.2714474  -17.38618  0.66%  51.5    6s
*11469  1947              80     -17.2714612  -17.38618  0.66%  51.5    6s
*11471  1947              81     -17.2714612  -17.38618  0.66%  51.5    6s
*11472  1947              81     -17.2714613  -17.38618  0.66%  51.5    6s
*11491  1947              66     -17.2786480  -17.38618  0.62%  51.4    6s
*11511  1947              85     -17.2786990  -17.38618  0.62%  51.3    6s
*11512  1947              85     -17.2787011  -17.38618  0.62%  51.3    6s
*11514  1947              85     -17.2787036  -17.38618  0.62%  51.3    6s
*11515  1947              85     -17.2787040  -17.38618  0.62%  51.3    6s
*11516  1947              83     -17.2787064  -17.38618  0.62%  51.3    6s
*11629  1857              79     -17.2863646  -17.35912  0.42%  51.0    6s
*11631  1857              80     -17.2863788  -17.35912  0.42%  51.0    6s
*11633  1857              78     -17.2869542  -17.35912  0.42%  51.0    6s
*12383  1884              68     -17.2978968  -17.33896  0.24%  49.3    6s
*12385  1884              69     -17.2978969  -17.33896  0.24%  49.2    6s
*13290   973              67     -17.2978970  -17.33494  0.21%  47.0    6s
*13291   973              67     -17.2978973  -17.33494  0.21%  47.0    6s
*14036   592              60     -17.2980914  -17.31265  0.08%  44.9    7s
*14199   592              68     -17.2981299  -17.30958  0.07%  44.5    7s
*14378   592              69     -17.2984965  -17.30958  0.06%  44.0    7s
*14381   592              68     -17.2985178  -17.30958  0.06%  43.9    7s
*14961   796              67     -17.2985220  -17.30465  0.04%  42.4    7s
*14963   796              68     -17.2985222  -17.30465  0.04%  42.4    7s
*14964   796              68     -17.2985228  -17.30465  0.04%  42.4    7s
*14965   796              66     -17.2985243  -17.30465  0.04%  42.4    7s
*14989   796              62     -17.2987891  -17.30430  0.03%  42.4    7s
*15006   796              66     -17.2990343  -17.30430  0.03%  42.3    7s
*15130   796              56     -17.2990723  -17.30430  0.03%  42.0    7s
*15157   796              65     -17.2993595  -17.30430  0.03%  42.0    7s
*15791   812              68     -17.2995579  -17.30428  0.03%  40.5    7s
*16063   812              64     -17.2999486  -17.30106  0.01%  39.9    7s
*16069   812              65     -17.2999786  -17.30106  0.01%  39.8    7s
*16074   812              65     -17.2999787  -17.30106  0.01%  39.8    7s

Explored 16910 nodes (643227 simplex iterations) in 7.25 seconds
Thread count was 32 (of 72 available processors)

Solution count 10: -17.3 -17.2999 -17.2996 ... -17.2985

Optimal solution found (tolerance 1.00e-04)
Best objective -1.729997866155e+01, best bound -1.730105864770e+01, gap 0.0062%

User-callback calls 34819, time in user-callback 0.01 sec



objective value: -17.299978661549005
objective bound: -17.30105864770221
x_opt: [0.0, 1.0, 1.0, 0.0, 0.0, 0.0, 1.0, 1.0, 0.0, 0.0, 0.2617288772774738, 0.39924414712198697, 0.0, 1.0, 1.0, 1.0, 1.595808557162627e-5, 1.0, 0.0, 0.0, 0.0008178690112545908, 0.9999546093096721, 1.0, 1.0, 0.0, 1.0, 1.0, 1.0, 0.0, 0.8196049636737828, 1.0, 0.724844516265648, 0.0, 0.19932958488140542, 1.0, 1.0, 1.0, 1.0, 0.4991039160086332, 1.0, 0.8893207560057685, 0.11594200185039644, 1.0, 0.0, 0.0, 0.7104496984265021, 0.14918944191914274, 0.0, 0.00012759919431433317, 1.0]
GUROBI solution time: 7.25363302230835

